GLPSOL--GLPK LP/MIP Solver 5.0
Parameter(s) specified in the command line:
 --lp ../modeles/3_154.lp --log 3_154.log
Reading problem data from '../modeles/3_154.lp'...
475 rows, 930 columns, 3243 non-zeros
462 integer variables, all of which are binary
1414 lines were read
GLPK Integer Optimizer 5.0
475 rows, 930 columns, 3243 non-zeros
462 integer variables, all of which are binary
Preprocessing...
462 constraint coefficient(s) were reduced
475 rows, 927 columns, 3240 non-zeros
462 integer variables, all of which are binary
Scaling...
 A: min|aij| =  6.747e-04  max|aij| =  4.000e+00  ratio =  5.929e+03
GM: min|aij| =  1.140e-01  max|aij| =  8.775e+00  ratio =  7.700e+01
EQ: min|aij| =  1.299e-02  max|aij| =  1.000e+00  ratio =  7.700e+01
2N: min|aij| =  1.079e-02  max|aij| =  1.762e+00  ratio =  1.633e+02
Constructing initial basis...
Size of triangular part is 475
Solving LP relaxation...
GLPK Simplex Optimizer 5.0
475 rows, 927 columns, 3240 non-zeros
      0: obj =   6.000000000e+00 inf =   1.450e+01 (7)
     62: obj =   3.904918586e-01 inf =   0.000e+00 (0)
*   186: obj =  -1.731746032e+00 inf =   4.604e-15 (0)
OPTIMAL LP SOLUTION FOUND
Integer optimization begins...
Long-step dual simplex will be used
+   186: mip =     not found yet >=              -inf        (1; 0)
+   360: >>>>>  -1.731746032e+00 >=  -1.731746032e+00 < 0.1% (170; 0)
+   360: mip =  -1.731746032e+00 >=     tree is empty   0.0% (0; 339)
INTEGER OPTIMAL SOLUTION FOUND
Time used:   0.1 secs
Memory used: 1.4 Mb (1475993 bytes)
